5 9
17 11
17 17
7 5
1 5
2 3
14 15
12 15
15 11
10 4
1 13
9 6
7 3
18 17
18 4
5 3
4 19
4 13
2 11
8 8
8 1
8 17
17 15
12 1
11 19
13 17
7 16
12 9
15 19
9 11
19 1
14 8
13 10
7 9
8 2
4 14
12 1
2 13
3 10
2 6
3 11
1 2
12 11
14 10
12 15
19 9
8 15
18 18
6 7
16 8
17 6
4 17
9 19
15 3
14 16
6 7
8 12
2 18
1 3
1 19
4 18
7 3
2 12
18 4
9 10
3 9
9 3
8 15
12 10
14 13
14 17
16 13
7 15
9 2
9 8
2 19
17 11
5 15
18 4
6 2
6 4
18 2
15 2
19 5
17 11
1 5
7 11
18 6
19 15
3 16
13 14
3 7
10 6
15 7
19 1
17 2
5 12
19 8
3 1
11 18